p cnf 51 49
-1 6 26 -27 -37 -38 -48 0 
-2 -3 16 27 -26 -37 -38 -48 0 
-4 10 -3 16 27 -26 -37 -38 -48 0 
-3 16 -5 28 0 
-3 16 -5 29 0 
-3 16 -5 30 0 
-5 31 0 
-3 16 -5 32 0 
-3 16 -5 33 0 
-3 16 -5 34 0 
-3 16 -5 35 0 
-3 16 -6 1 -7 -8 36 0 
-7 -6 1 -3 16 -8 35 0 
-9 37 -26 -27 -38 -48 0 
-3 16 38 -26 -27 -37 -48 0 
-3 16 27 -26 -37 -38 -48 0 
-10 4 -3 16 27 -26 -37 -38 -48 0 
-11 27 -26 -37 -38 -48 0 
-7 -3 16 -8 33 0 
-7 -3 16 -8 29 0 
-7 -3 16 -8 39 0 
-7 -3 16 -8 34 0 
-6 1 -3 16 -7 -8 40 0 
-12 13 36 0 
-13 12 30 0 
-12 13 34 0 
-12 13 32 0 
-12 13 39 0 
-12 13 28 0 
-12 13 29 0 
-12 13 41 0 
-12 13 35 0 
-12 13 40 0 
-3 16 -7 -1 6 30 0 
-6 1 -14 -7 41 0 
-6 1 -14 -7 28 0 
-6 1 -15 -16 3 -7 31 0 
-3 16 -17 32 0 
-18 19 22 23 24 25 42 -26 -27 -37 -38 -48 -21 0 
-19 18 22 23 24 25 -20 43 -45 -46 -47 -50 -51 0 
-21 44 -26 -27 -37 -38 -48 -18 -19 -22 -23 -24 -25 0 
-22 18 19 23 24 25 45 -43 -46 -47 -50 -51 0 
-23 18 19 22 24 25 46 -43 -45 -47 -50 -51 0 
-24 18 19 22 23 25 47 -43 -45 -46 -50 -51 0 
-21 48 -26 -27 -37 -38 0 
-23 18 19 22 24 25 49 -26 -27 -37 -38 -48 -20 0 
-21 50 -43 -45 -46 -47 -51 0 
-25 18 19 22 23 24 51 -43 -45 -46 -47 -50 0 
-11 27 -26 -37 -38 -48 0 
